SLURM_JOB_ID: 55294408
SLURM_JOB_USER: vsc34888
SLURM_JOB_ACCOUNT: lp_elect_gen_modeling
SLURM_JOB_NAME: 9n_full_MILP_DC
SLURM_CLUSTER_NAME: genius
SLURM_JOB_PARTITION: batch
SLURM_NNODES: 1
SLURM_NODELIST: r23i27n10
SLURM_JOB_CPUS_PER_NODE: 36
Date: Wed Oct 11 16:53:24 CEST 2023
Walltime: 01-00:00:00
========================================================================
Activation OK
Starting runs
/lustre1/scratch/348/vsc34888/JointResearch/05.Models/06.Benchmarking/A.The_full_year_MILP/oSN_Main_DCOPF.py:617: FutureWarning: The default dtype for empty Series will be 'object' instead of 'float64' in a future version. Specify a dtype explicitly to silence this warning.
  pLinearOperCost.update (pd.Series([0 for gg in model.gg if pLinearOperCost [gg] < pEpsilon], index=[gg for gg in model.gg if pLinearOperCost [gg] < pEpsilon]))
/lustre1/scratch/348/vsc34888/JointResearch/05.Models/06.Benchmarking/A.The_full_year_MILP/oSN_Main_DCOPF.py:618: FutureWarning: The default dtype for empty Series will be 'object' instead of 'float64' in a future version. Specify a dtype explicitly to silence this warning.
  pLinearVarCost.update  (pd.Series([0 for gg in model.gg if pLinearVarCost  [gg] < pEpsilon], index=[gg for gg in model.gg if pLinearVarCost  [gg] < pEpsilon]))

 #### Academic research license - for non-commercial use only #### 

9n
/lustre1/scratch/348/vsc34888/JointResearch/05.Models/06.Benchmarking/A.The_full_year_MILP
gurobi
['oSN_Main_DCOPF.py', '--case', '9n']
Namespace(case='9n', dir='/lustre1/scratch/348/vsc34888/JointResearch/05.Models/06.Benchmarking/A.The_full_year_MILP', solver='gurobi')
Namespace(case='9n', dir='/lustre1/scratch/348/vsc34888/JointResearch/05.Models/06.Benchmarking/A.The_full_year_MILP', solver='gurobi')
Reading    input data                 ...  0 s
Setting up input data                 ...  6 s
Generating objective function         ...  7 s
Generating operation & investment     ...  0 s
Generating balance                    ...  11 s
Generating storage operation          ...  0 s
Generating generation commitment      ...  8 s
Generating generation capacity        ...  1 s
Generating network    capacity        ...  14 s
Generating network    constraints     ...  38 s
Econometric analysis  constraints     ...  0 s
Set parameter Username
Set parameter TokenServer to value "SET-S-ME-LM3.luna.kuleuven.be"
Read LP format model from file /tmp/tmpn4dbntwe.pyomo.lp
Reading time = 6.59 seconds
x1: 2288835 rows, 1210279 columns, 7133881 nonzeros
Set parameter QCPDual to value 1
Set parameter LogFile to value "/lustre1/scratch/348/vsc34888/JointResearch/05.Models/06.Benchmarking/A.The_full_year_MILP/9n/openStarNet_9n.log"
Set parameter Method to value 2
Set parameter MIPFocus to value 1
Set parameter Presolve to value 2
Set parameter RINS to value 100
Set parameter MIPGap to value 0.01
Set parameter Threads to value 36
Set parameter TimeLimit to value 604800
Set parameter IterationLimit to value 760000000
Gurobi Optimizer version 9.5.0 build v9.5.0rc5 (linux64)
Thread count: 36 physical cores, 36 logical processors, using up to 36 threads
Optimize a model with 2288835 rows, 1210279 columns and 7133881 nonzeros
Model fingerprint: 0x56c50390
Variable types: 1210243 continuous, 36 integer (36 binary)
Coefficient statistics:
  Matrix range     [7e-04, 7e+01]
  Objective range  [1e+00, 1e+00]
  Bounds range     [4e-04, 2e+00]
  RHS range        [4e-04, 1e+00]
Presolve removed 742563 rows and 375652 columns (presolve time = 5s) ...
Presolve removed 742563 rows and 375652 columns (presolve time = 10s) ...
Presolve removed 742563 rows and 375652 columns (presolve time = 16s) ...
Presolve removed 742563 rows and 375652 columns
Presolve time: 16.00s
Presolved: 1546272 rows, 834627 columns, 5473407 nonzeros
Variable types: 834591 continuous, 36 integer (36 binary)
Root relaxation presolved: 1546272 rows, 834627 columns, 5473407 nonzeros

Root barrier log...

Ordering time: 0.51s

Barrier statistics:
 Dense cols : 36
 AA' NZ     : 2.081e+07
 Factor NZ  : 4.702e+07 (roughly 1.3 GB of memory)
 Factor Ops : 2.386e+09 (less than 1 second per iteration)
 Threads    : 35

                  Objective                Residual
Iter       Primal          Dual         Primal    Dual     Compl     Time
   0   3.92662706e+05 -1.99778517e+07  6.62e+00 5.96e-01  2.05e+01    33s
   1   6.06274637e+04 -5.88842972e+06  7.75e-01 1.25e-08  2.74e+00    34s
   2   1.34449021e+04 -9.29855768e+05  9.43e-03 3.17e-09  3.14e-01    35s
   3   3.23092634e+03 -2.18278185e+04  1.08e-05 6.90e-11  8.27e-03    36s
   4   9.35225284e+02 -3.99979025e+03  9.74e-09 1.17e-11  1.63e-03    37s
   5   6.63128652e+02 -1.92601929e+03  4.65e-09 5.73e-12  8.54e-04    38s
   6   4.72862535e+02 -1.16411767e+03  2.60e-09 3.23e-12  5.40e-04    38s
   7   3.32715815e+02 -6.37755256e+02  1.39e-09 2.67e-12  3.20e-04    39s
   8   1.90742968e+02 -2.64514584e+02  4.20e-10 6.32e-13  1.50e-04    40s
   9   1.51274886e+02 -5.99450007e+01  2.36e-10 8.88e-13  6.97e-05    41s
  10   1.44159846e+02 -3.39602289e+01  2.06e-10 1.17e-12  5.87e-05    42s
  11   1.24763537e+02  3.45858331e+00  1.19e-10 7.25e-13  4.00e-05    43s
  12   1.12600195e+02  2.30054973e+01  7.15e-11 9.66e-13  2.96e-05    44s
  13   1.06831334e+02  3.63893919e+01  4.91e-11 7.39e-13  2.32e-05    45s
  14   1.04721372e+02  4.77380106e+01  4.52e-11 5.97e-13  1.88e-05    46s
  15   1.02325974e+02  5.71939966e+01  3.18e-11 8.46e-13  1.49e-05    47s
  16   1.01587086e+02  6.27950935e+01  3.44e-11 8.60e-13  1.28e-05    48s
  17   1.01070931e+02  6.45378174e+01  3.22e-11 5.33e-13  1.20e-05    49s
  18   1.00429289e+02  6.58740268e+01  2.94e-11 8.17e-13  1.14e-05    50s
  19   9.89594412e+01  7.10309137e+01  7.60e-11 2.74e-13  9.21e-06    51s
  20   9.84827059e+01  7.24012920e+01  6.69e-11 7.46e-13  8.60e-06    52s
  21   9.76544314e+01  7.64992834e+01  5.73e-11 8.24e-13  6.98e-06    54s
  22   9.69721850e+01  7.79231083e+01  4.59e-11 9.02e-13  6.28e-06    55s
  23   9.65067895e+01  7.98758899e+01  4.63e-11 9.59e-13  5.49e-06    56s
  24   9.62260008e+01  8.08112534e+01  4.41e-11 5.61e-13  5.08e-06    57s
  25   9.57007883e+01  8.28531574e+01  6.29e-11 8.46e-13  4.24e-06    58s
  26   9.55495532e+01  8.33661411e+01  7.63e-11 7.89e-13  4.02e-06    59s
  27   9.52036214e+01  8.50671334e+01  1.08e-10 1.36e-12  3.34e-06    60s
  28   9.50439060e+01  8.56028965e+01  9.96e-11 1.01e-12  3.11e-06    62s
  29   9.49043942e+01  8.59175182e+01  9.09e-11 2.84e-13  2.96e-06    63s
  30   9.46545187e+01  8.70797542e+01  1.23e-10 3.91e-13  2.50e-06    64s
  31   9.44714043e+01  8.74564525e+01  9.34e-11 6.32e-13  2.31e-06    65s
  32   9.43367506e+01  8.78890507e+01  1.41e-10 1.18e-12  2.13e-06    66s
  33   9.42934221e+01  8.80909558e+01  1.81e-10 6.47e-13  2.05e-06    67s
  34   9.41548519e+01  8.87841782e+01  1.90e-10 1.05e-12  1.77e-06    68s
  35   9.40392426e+01  8.92706015e+01  1.65e-10 1.09e-12  1.57e-06    69s
  36   9.39595879e+01  8.94400713e+01  1.49e-10 5.68e-13  1.49e-06    71s
  37   9.38960653e+01  8.97379579e+01  1.34e-10 5.54e-13  1.37e-06    72s
  38   9.38250613e+01  9.00181159e+01  1.20e-10 9.02e-13  1.26e-06    73s
  39   9.37511997e+01  9.03459250e+01  4.73e-10 5.90e-13  1.12e-06    74s
  40   9.37082846e+01  9.05161750e+01  4.42e-10 1.04e-12  1.05e-06    75s
  41   9.36455446e+01  9.07151900e+01  3.94e-10 1.05e-12  9.67e-07    77s
  42   9.36116242e+01  9.07968467e+01  3.60e-10 6.25e-13  9.28e-07    78s
  43   9.35826241e+01  9.09256691e+01  3.30e-10 1.02e-12  8.76e-07    79s
  44   9.35558481e+01  9.10206228e+01  3.01e-10 7.89e-13  8.36e-07    80s
  45   9.35272290e+01  9.11054671e+01  3.34e-10 7.39e-13  7.99e-07    81s
  46   9.35068375e+01  9.12634598e+01  2.98e-10 6.61e-13  7.40e-07    82s
  47   9.34619107e+01  9.13979812e+01  2.49e-10 9.31e-13  6.81e-07    84s
  48   9.34337046e+01  9.17429783e+01  2.21e-10 1.24e-12  5.58e-07    85s
  49   9.34067692e+01  9.18257962e+01  2.65e-10 1.27e-12  5.21e-07    86s
  50   9.33516347e+01  9.23082150e+01  2.27e-10 1.73e-12  3.44e-07    87s
  51   9.33232840e+01  9.24868578e+01  1.05e-10 1.31e-12  2.76e-07    88s
  52   9.33162295e+01  9.25372013e+01  6.21e-10 9.31e-13  2.57e-07    90s
  53   9.33043806e+01  9.26701692e+01  6.86e-10 3.41e-12  2.09e-07    91s
  54   9.32929957e+01  9.27126015e+01  6.14e-10 1.09e-12  1.91e-07    93s
  55   9.32880219e+01  9.27273517e+01  5.75e-10 5.83e-13  1.85e-07    94s
  56   9.32799483e+01  9.28250589e+01  6.14e-10 3.91e-13  1.50e-07    96s
  57   9.32644124e+01  9.29606660e+01  1.15e-09 2.41e-12  1.00e-07    97s
  58   9.32513481e+01  9.30250792e+01  1.21e-09 1.30e-12  7.46e-08    98s
  59   9.32484693e+01  9.30390405e+01  1.12e-09 1.09e-12  6.91e-08   100s
  60   9.32421045e+01  9.30706741e+01  9.19e-10 8.42e-13  5.65e-08   102s
  61   9.32390833e+01  9.30988293e+01  8.16e-10 7.82e-13  4.63e-08   104s
  62   9.32275848e+01  9.31807089e+01  1.02e-09 2.63e-13  1.55e-08   105s
  63   9.32259004e+01  9.31845330e+01  8.86e-10 5.33e-13  1.36e-08   107s
  64   9.32212503e+01  9.32057686e+01  5.11e-10 3.34e-13  5.11e-09   108s
  65   9.32208883e+01  9.32066766e+01  4.83e-10 3.84e-13  4.69e-09   109s
  66   9.32203351e+01  9.32068013e+01  4.41e-10 5.19e-13  4.46e-09   111s
  67   9.32192318e+01  9.32072540e+01  3.58e-10 2.56e-13  3.95e-09   112s
  68   9.32149971e+01  9.32135726e+01  9.35e-10 4.26e-13  4.70e-10   113s
  69   9.32145408e+01  9.32144432e+01  8.65e-10 3.66e-13  3.22e-11   113s
  70   9.32145083e+01  9.32145083e+01  2.43e-10 1.89e-11  7.96e-15   114s

Barrier solved model in 70 iterations and 114.30 seconds (81.83 work units)
Optimal objective 9.32145083e+01


Root crossover log...

  364155 DPushes remaining with DInf 0.0000000e+00               115s
       0 DPushes remaining with DInf 0.0000000e+00               116s

   61735 PPushes remaining with PInf 0.0000000e+00               116s
       0 PPushes remaining with PInf 0.0000000e+00               120s

  Push phase complete: Pinf 0.0000000e+00, Dinf 3.1150309e-11    120s


Root simplex log...

Iteration    Objective       Primal Inf.    Dual Inf.      Time
   70632    9.3214508e+01   0.000000e+00   0.000000e+00    121s
   70632    9.3214508e+01   0.000000e+00   0.000000e+00    122s

Root relaxation: objective 9.321451e+01, 70632 iterations, 97.89 seconds (73.97 work units)

    Nodes    |    Current Node    |     Objective Bounds      |     Work
 Expl Unexpl |  Obj  Depth IntInf | Incumbent    BestBd   Gap | It/Node Time

     0     0   93.21451    0    6          -   93.21451      -     -  123s
H    0     0                     937.5674172   93.21451  90.1%     -  134s
     0     0  100.67134    0    1  937.56742  100.67134  89.3%     -  399s
H    0     0                     101.3821196  100.67134  0.70%     -  414s

Cutting planes:
  Gomory: 1
  MIR: 13335

Explored 1 nodes (121819 simplex iterations) in 414.96 seconds (712.52 work units)
Thread count was 36 (of 36 available processors)

Solution count 2: 101.382 937.567 

Optimal solution found (tolerance 1.00e-02)
Best objective 1.013821196243e+02, best bound 1.006713385877e+02, gap 0.7011%
Termination condition:  optimal
# ==========================================================
# = Solver Results                                         =
# ==========================================================
# ----------------------------------------------------------
#   Problem Information
# ----------------------------------------------------------
Problem: 
- Name: x1
  Lower bound: 100.67133858773879
  Upper bound: 101.3821196243099
  Number of objectives: 1
  Number of constraints: 2288835
  Number of variables: 1210279
  Number of binary variables: 36
  Number of integer variables: 36
  Number of continuous variables: 1210243
  Number of nonzeros: 7133881
  Sense: minimize
# ----------------------------------------------------------
#   Solver Information
# ----------------------------------------------------------
Solver: 
- Status: ok
  Return code: 0
  Message: Model was solved to optimality (subject to tolerances), and an optimal solution is available.
  Termination condition: optimal
  Termination message: Model was solved to optimality (subject to tolerances), and an optimal solution is available.
  Wall time: 414.99910521507263
  Error rc: 0
  Time: 428.7648169994354
# ----------------------------------------------------------
#   Solution Information
# ----------------------------------------------------------
Solution: 
- number of solutions: 0
  number of solutions displayed: 0
# ============================================================================= #
# ============================================================================= #
fixing: vNetworkInvest[2030,Node_4,Node_5,cac1]
fixing: vNetworkInvest[2030,Node_6,Node_7,cac3]
fixing: vNetworkInvest[2030,Node_7,Node_8,cac3]
fixing: vNetworkInvest[2030,Node_2,Node_3,cac1]
fixing: vNetworkInvest[2030,Node_4,Node_5,cac2]
fixing: vNetworkInvest[2030,Node_4,Node_6,cac1]
fixing: vNetworkInvest[2030,Node_2,Node_6,cac3]
fixing: vNetworkInvest[2030,Node_2,Node_3,cac2]
fixing: vNetworkInvest[2030,Node_4,Node_6,cac2]
fixing: vNetworkInvest[2030,Node_3,Node_6,cac1]
fixing: vNetworkInvest[2030,Node_6,Node_8,cac1]
fixing: vNetworkInvest[2030,Node_8,Node_9,cac3]
fixing: vNetworkInvest[2030,Node_3,Node_6,cac2]
fixing: vNetworkInvest[2030,Node_1,Node_6,cac3]
fixing: vNetworkInvest[2030,Node_6,Node_8,cac2]
fixing: vNetworkInvest[2030,Node_3,Node_4,cac3]
fixing: vNetworkInvest[2030,Node_4,Node_9,cac3]
fixing: vNetworkInvest[2030,Node_7,Node_8,cac1]
fixing: vNetworkInvest[2030,Node_6,Node_7,cac1]
fixing: vNetworkInvest[2030,Node_6,Node_7,cac2]
fixing: vNetworkInvest[2030,Node_2,Node_6,cac1]
fixing: vNetworkInvest[2030,Node_7,Node_8,cac2]
fixing: vNetworkInvest[2030,Node_4,Node_5,cac3]
fixing: vNetworkInvest[2030,Node_2,Node_6,cac2]
fixing: vNetworkInvest[2030,Node_2,Node_3,cac3]
fixing: vNetworkInvest[2030,Node_4,Node_6,cac3]
fixing: vNetworkInvest[2030,Node_8,Node_9,cac1]
fixing: vNetworkInvest[2030,Node_3,Node_6,cac3]
fixing: vNetworkInvest[2030,Node_6,Node_8,cac3]
fixing: vNetworkInvest[2030,Node_1,Node_6,cac1]
fixing: vNetworkInvest[2030,Node_8,Node_9,cac2]
fixing: vNetworkInvest[2030,Node_1,Node_6,cac2]
fixing: vNetworkInvest[2030,Node_3,Node_4,cac1]
fixing: vNetworkInvest[2030,Node_4,Node_9,cac1]
fixing: vNetworkInvest[2030,Node_3,Node_4,cac2]
fixing: vNetworkInvest[2030,Node_4,Node_9,cac2]
Number of fixed variables:  36
# ============================================================================= #
# ============================================================================= #
WARNING: Implicitly replacing the Component attribute dual (type=<class
'pyomo.core.base.suffix.Suffix'>) on block 'openStarNet - Open Version of the
StartNetLite Model (Long Term Transmission Expansion Planning) - Version 1.0.0
- January 16, 2023' with a new Component (type=<class
'pyomo.core.base.suffix.Suffix'>). This is usually indicative of a modelling
error. To avoid this warning, use block.del_component() and
block.add_component().
WARNING: Implicitly replacing the Component attribute rc (type=<class
'pyomo.core.base.suffix.Suffix'>) on block 'openStarNet - Open Version of the
StartNetLite Model (Long Term Transmission Expansion Planning) - Version 1.0.0
- January 16, 2023' with a new Component (type=<class
'pyomo.core.base.suffix.Suffix'>). This is usually indicative of a modelling
error. To avoid this warning, use block.del_component() and
block.add_component().
# ==========================================================
# = Solver Results                                         =
# ==========================================================
# ----------------------------------------------------------
#   Problem Information
# ----------------------------------------------------------
Problem: 
- Name: x1
  Lower bound: 101.38211962431052
  Upper bound: 101.38211962431052
  Number of objectives: 1
  Number of constraints: 2288835
  Number of variables: 1210243
  Number of binary variables: 0
  Number of integer variables: 0
  Number of continuous variables: 1210243
  Number of nonzeros: 5875861
  Sense: minimize
# ----------------------------------------------------------
#   Solver Information
# ----------------------------------------------------------
Solver: 
- Status: ok
  Return code: 0
  Message: Model was solved to optimality (subject to tolerances), and an optimal solution is available.
  Termination condition: optimal
  Termination message: Model was solved to optimality (subject to tolerances), and an optimal solution is available.
  Wall time: 12.054594993591309
  Error rc: 0
  Time: 32.156546115875244
# ----------------------------------------------------------
#   Solution Information
# ----------------------------------------------------------
Solution: 
- number of solutions: 0
  number of solutions displayed: 0
Solving                               ...  586 s
Objective function value                   101.38 M€
Objective function value                   101.38211962431052
Writing         cost summary results  ...  0 s
Writing           investment results  ...  0 s
Writing       energy balance results  ...  20 s
Writing    network operation results  ...  4 s
Writing generation operation results  ...  5 s
Writing        ESS operation results  ...  0 s
Writing             economic results  ...  1 s

 #### Academic research license - for non-commercial use only #### 

Elapsed time: 719 seconds
